; Options: -in -smt2
(set-option :produce-unsat-assumptions true)

(declare-fun start!1205 () Bool)

(assert start!1205)

(declare-fun res!4185 () Bool)

(declare-fun e!2937 () Bool)

(assert (=> start!1205 (=> (not res!4185) (not e!2937))))

(declare-fun jz!70 () (_ BitVec 32))

(declare-datatypes ((array!479 0))(
  ( (array!480 (arr!213 (Array (_ BitVec 32) (_ FloatingPoint 11 53))) (size!213 (_ BitVec 32))) )
))
(declare-fun qq!74 () array!479)

(assert (=> start!1205 (= res!4185 (and (bvsle #b00000000000000000000000000000000 jz!70) (bvslt jz!70 #b00000000000000000000000000010100) (= (size!213 qq!74) #b00000000000000000000000000010100)))))

(assert (=> start!1205 e!2937))

(assert (=> start!1205 true))

(declare-fun array_inv!163 (array!479) Bool)

(assert (=> start!1205 (array_inv!163 qq!74)))

(declare-fun fq!78 () array!479)

(assert (=> start!1205 (array_inv!163 fq!78)))

(declare-fun b!5290 () Bool)

(declare-fun res!4188 () Bool)

(assert (=> b!5290 (=> (not res!4188) (not e!2937))))

(declare-fun fqInv!0 (array!479) Bool)

(assert (=> b!5290 (= res!4188 (fqInv!0 fq!78))))

(declare-fun b!5288 () Bool)

(declare-fun res!4186 () Bool)

(assert (=> b!5288 (=> (not res!4186) (not e!2937))))

(declare-fun qqInv!0 (array!479) Bool)

(assert (=> b!5288 (= res!4186 (qqInv!0 qq!74))))

(declare-fun b!5289 () Bool)

(declare-fun res!4187 () Bool)

(assert (=> b!5289 (=> (not res!4187) (not e!2937))))

(declare-fun i!327 () (_ BitVec 32))

(assert (=> b!5289 (= res!4187 (and (fp.leq (fp #b0 #b00000000000 #b0000000000000000000000000000000000000000000000000000) (select (store ((as const (Array (_ BitVec 32) (_ FloatingPoint 11 53))) (fp #b0 #b00000000000 #b0000000000000000000000000000000000000000000000000000)) #b00000000000000000000000000000000 (fp.mul roundNearestTiesToEven (fp #b0 #b01111111111 #b1001001000011111101101000000000000000000000000000000) (select (arr!213 qq!74) #b00000000000000000000000000000000))) #b00000000000000000000000000000000)) (fp.leq (select (store ((as const (Array (_ BitVec 32) (_ FloatingPoint 11 53))) (fp #b0 #b00000000000 #b0000000000000000000000000000000000000000000000000000)) #b00000000000000000000000000000000 (fp.mul roundNearestTiesToEven (fp #b0 #b01111111111 #b1001001000011111101101000000000000000000000000000000) (select (arr!213 qq!74) #b00000000000000000000000000000000))) #b00000000000000000000000000000000) (fp #b0 #b01111111110 #b1001001000011111101100001101101111000000100110000000)) (fp.leq (fp #b0 #b00000000000 #b0000000000000000000000000000000000000000000000000000) (select (store (store ((as const (Array (_ BitVec 32) (_ FloatingPoint 11 53))) (fp #b0 #b00000000000 #b0000000000000000000000000000000000000000000000000000)) #b00000000000000000000000000000000 (fp.mul roundNearestTiesToEven (fp #b0 #b01111111111 #b1001001000011111101101000000000000000000000000000000) (select (arr!213 qq!74) #b00000000000000000000000000000000))) #b00000000000000000000000000000001 (fp.add roundNearestTiesToEven (fp.mul roundNearestTiesToEven (fp #b0 #b01111111111 #b1001001000011111101101000000000000000000000000000000) (select (arr!213 qq!74) #b00000000000000000000000000000001)) (fp.mul roundNearestTiesToEven (fp #b0 #b01111100111 #b0100010001000010110100000000000000000000000000000000) (select (arr!213 qq!74) #b00000000000000000000000000000000)))) #b00000000000000000000000000000001)) (fp.leq (select (store (store ((as const (Array (_ BitVec 32) (_ FloatingPoint 11 53))) (fp #b0 #b00000000000 #b0000000000000000000000000000000000000000000000000000)) #b00000000000000000000000000000000 (fp.mul roundNearestTiesToEven (fp #b0 #b01111111111 #b1001001000011111101101000000000000000000000000000000) (select (arr!213 qq!74) #b00000000000000000000000000000000))) #b00000000000000000000000000000001 (fp.add roundNearestTiesToEven (fp.mul roundNearestTiesToEven (fp #b0 #b01111111111 #b1001001000011111101101000000000000000000000000000000) (select (arr!213 qq!74) #b00000000000000000000000000000001)) (fp.mul roundNearestTiesToEven (fp #b0 #b01111100111 #b0100010001000010110100000000000000000000000000000000) (select (arr!213 qq!74) #b00000000000000000000000000000000)))) #b00000000000000000000000000000001) (fp #b0 #b01111101000 #b0001101000100000100011001001010011001110101111100000)) (fp.leq (fp #b0 #b00000000000 #b0000000000000000000000000000000000000000000000000000) (select (store (store (store ((as const (Array (_ BitVec 32) (_ FloatingPoint 11 53))) (fp #b0 #b00000000000 #b0000000000000000000000000000000000000000000000000000)) #b00000000000000000000000000000000 (fp.mul roundNearestTiesToEven (fp #b0 #b01111111111 #b1001001000011111101101000000000000000000000000000000) (select (arr!213 qq!74) #b00000000000000000000000000000000))) #b00000000000000000000000000000001 (fp.add roundNearestTiesToEven (fp.mul roundNearestTiesToEven (fp #b0 #b01111111111 #b1001001000011111101101000000000000000000000000000000) (select (arr!213 qq!74) #b00000000000000000000000000000001)) (fp.mul roundNearestTiesToEven (fp #b0 #b01111100111 #b0100010001000010110100000000000000000000000000000000) (select (arr!213 qq!74) #b00000000000000000000000000000000)))) #b00000000000000000000000000000010 (fp.add roundNearestTiesToEven (fp.add roundNearestTiesToEven (fp.mul roundNearestTiesToEven (fp #b0 #b01111111111 #b1001001000011111101101000000000000000000000000000000) (select (arr!213 qq!74) #b00000000000000000000000000000010)) (fp.mul roundNearestTiesToEven (fp #b0 #b01111100111 #b0100010001000010110100000000000000000000000000000000) (select (arr!213 qq!74) #b00000000000000000000000000000001))) (fp.mul roundNearestTiesToEven (fp #b0 #b01111001111 #b1000010001101001100010000000000000000000000000000000) (select (arr!213 qq!74) #b00000000000000000000000000000000)))) #b00000000000000000000000000000010)) (fp.leq (select (store (store (store ((as const (Array (_ BitVec 32) (_ FloatingPoint 11 53))) (fp #b0 #b00000000000 #b0000000000000000000000000000000000000000000000000000)) #b00000000000000000000000000000000 (fp.mul roundNearestTiesToEven (fp #b0 #b01111111111 #b1001001000011111101101000000000000000000000000000000) (select (arr!213 qq!74) #b00000000000000000000000000000000))) #b00000000000000000000000000000001 (fp.add roundNearestTiesToEven (fp.mul roundNearestTiesToEven (fp #b0 #b01111111111 #b1001001000011111101101000000000000000000000000000000) (select (arr!213 qq!74) #b00000000000000000000000000000001)) (fp.mul roundNearestTiesToEven (fp #b0 #b01111100111 #b0100010001000010110100000000000000000000000000000000) (select (arr!213 qq!74) #b00000000000000000000000000000000)))) #b00000000000000000000000000000010 (fp.add roundNearestTiesToEven (fp.add roundNearestTiesToEven (fp.mul roundNearestTiesToEven (fp #b0 #b01111111111 #b1001001000011111101101000000000000000000000000000000) (select (arr!213 qq!74) #b00000000000000000000000000000010)) (fp.mul roundNearestTiesToEven (fp #b0 #b01111100111 #b0100010001000010110100000000000000000000000000000000) (select (arr!213 qq!74) #b00000000000000000000000000000001))) (fp.mul roundNearestTiesToEven (fp #b0 #b01111001111 #b1000010001101001100010000000000000000000000000000000) (select (arr!213 qq!74) #b00000000000000000000000000000000)))) #b00000000000000000000000000000010) (fp #b0 #b01111010000 #b1100110001001011101000011101001010011001111110100000)) (fp.leq (fp #b0 #b00000000000 #b0000000000000000000000000000000000000000000000000000) (select (store (store (store (store ((as const (Array (_ BitVec 32) (_ FloatingPoint 11 53))) (fp #b0 #b00000000000 #b0000000000000000000000000000000000000000000000000000)) #b00000000000000000000000000000000 (fp.mul roundNearestTiesToEven (fp #b0 #b01111111111 #b1001001000011111101101000000000000000000000000000000) (select (arr!213 qq!74) #b00000000000000000000000000000000))) #b00000000000000000000000000000001 (fp.add roundNearestTiesToEven (fp.mul roundNearestTiesToEven (fp #b0 #b01111111111 #b1001001000011111101101000000000000000000000000000000) (select (arr!213 qq!74) #b00000000000000000000000000000001)) (fp.mul roundNearestTiesToEven (fp #b0 #b01111100111 #b0100010001000010110100000000000000000000000000000000) (select (arr!213 qq!74) #b00000000000000000000000000000000)))) #b00000000000000000000000000000010 (fp.add roundNearestTiesToEven (fp.add roundNearestTiesToEven (fp.mul roundNearestTiesToEven (fp #b0 #b01111111111 #b1001001000011111101101000000000000000000000000000000) (select (arr!213 qq!74) #b00000000000000000000000000000010)) (fp.mul roundNearestTiesToEven (fp #b0 #b01111100111 #b0100010001000010110100000000000000000000000000000000) (select (arr!213 qq!74) #b00000000000000000000000000000001))) (fp.mul roundNearestTiesToEven (fp #b0 #b01111001111 #b1000010001101001100010000000000000000000000000000000) (select (arr!213 qq!74) #b00000000000000000000000000000000)))) #b00000000000000000000000000000011 (fp.add roundNearestTiesToEven (fp.add roundNearestTiesToEven (fp.add roundNearestTiesToEven (fp.mul roundNearestTiesToEven (fp #b0 #b01111111111 #b1001001000011111101101000000000000000000000000000000) (select (arr!213 qq!74) #b00000000000000000000000000000011)) (fp.mul roundNearestTiesToEven (fp #b0 #b01111100111 #b0100010001000010110100000000000000000000000000000000) (select (arr!213 qq!74) #b00000000000000000000000000000010))) (fp.mul roundNearestTiesToEven (fp #b0 #b01111001111 #b1000010001101001100010000000000000000000000000000000) (select (arr!213 qq!74) #b00000000000000000000000000000001))) (fp.mul roundNearestTiesToEven (fp #b0 #b01110110111 #b1000110011000101000101100000000000000000000000000000) (select (arr!213 qq!74) #b00000000000000000000000000000000)))) #b00000000000000000000000000000011)) (fp.leq (select (store (store (store (store ((as const (Array (_ BitVec 32) (_ FloatingPoint 11 53))) (fp #b0 #b00000000000 #b0000000000000000000000000000000000000000000000000000)) #b00000000000000000000000000000000 (fp.mul roundNearestTiesToEven (fp #b0 #b01111111111 #b1001001000011111101101000000000000000000000000000000) (select (arr!213 qq!74) #b00000000000000000000000000000000))) #b00000000000000000000000000000001 (fp.add roundNearestTiesToEven (fp.mul roundNearestTiesToEven (fp #b0 #b01111111111 #b1001001000011111101101000000000000000000000000000000) (select (arr!213 qq!74) #b00000000000000000000000000000001)) (fp.mul roundNearestTiesToEven (fp #b0 #b01111100111 #b0100010001000010110100000000000000000000000000000000) (select (arr!213 qq!74) #b00000000000000000000000000000000)))) #b00000000000000000000000000000010 (fp.add roundNearestTiesToEven (fp.add roundNearestTiesToEven (fp.mul roundNearestTiesToEven (fp #b0 #b01111111111 #b1001001000011111101101000000000000000000000000000000) (select (arr!213 qq!74) #b00000000000000000000000000000010)) (fp.mul roundNearestTiesToEven (fp #b0 #b01111100111 #b0100010001000010110100000000000000000000000000000000) (select (arr!213 qq!74) #b00000000000000000000000000000001))) (fp.mul roundNearestTiesToEven (fp #b0 #b01111001111 #b1000010001101001100010000000000000000000000000000000) (select (arr!213 qq!74) #b00000000000000000000000000000000)))) #b00000000000000000000000000000011 (fp.add roundNearestTiesToEven (fp.add roundNearestTiesToEven (fp.add roundNearestTiesToEven (fp.mul roundNearestTiesToEven (fp #b0 #b01111111111 #b1001001000011111101101000000000000000000000000000000) (select (arr!213 qq!74) #b00000000000000000000000000000011)) (fp.mul roundNearestTiesToEven (fp #b0 #b01111100111 #b0100010001000010110100000000000000000000000000000000) (select (arr!213 qq!74) #b00000000000000000000000000000010))) (fp.mul roundNearestTiesToEven (fp #b0 #b01111001111 #b1000010001101001100010000000000000000000000000000000) (select (arr!213 qq!74) #b00000000000000000000000000000001))) (fp.mul roundNearestTiesToEven (fp #b0 #b01110110111 #b1000110011000101000101100000000000000000000000000000) (select (arr!213 qq!74) #b00000000000000000000000000000000)))) #b00000000000000000000000000000011) (fp #b0 #b01110111001 #b0100100001001011101001000100011000011011101101111000)) (bvsle #b00000000000000000000000000000100 i!327) (bvsle i!327 jz!70) (= (size!213 fq!78) #b00000000000000000000000000010100)))))

(declare-fun b!5291 () Bool)

(assert (=> b!5291 (= e!2937 (and (bvslt i!327 jz!70) (not (= (bvand i!327 #b10000000000000000000000000000000) #b00000000000000000000000000000000)) (not (= (bvand i!327 #b10000000000000000000000000000000) (bvand (bvsub i!327 #b00000000000000000000000000000100) #b10000000000000000000000000000000)))))))

(assert (= (and start!1205 res!4185) b!5288))

(assert (= (and b!5288 res!4186) b!5289))

(assert (= (and b!5289 res!4187) b!5290))

(assert (= (and b!5290 res!4188) b!5291))

(declare-fun m!7805 () Bool)

(assert (=> start!1205 m!7805))

(declare-fun m!7807 () Bool)

(assert (=> start!1205 m!7807))

(declare-fun m!7809 () Bool)

(assert (=> b!5290 m!7809))

(declare-fun m!7811 () Bool)

(assert (=> b!5288 m!7811))

(declare-fun m!7813 () Bool)

(assert (=> b!5289 m!7813))

(declare-fun m!7815 () Bool)

(assert (=> b!5289 m!7815))

(declare-fun m!7817 () Bool)

(assert (=> b!5289 m!7817))

(declare-fun m!7819 () Bool)

(assert (=> b!5289 m!7819))

(declare-fun m!7821 () Bool)

(assert (=> b!5289 m!7821))

(declare-fun m!7823 () Bool)

(assert (=> b!5289 m!7823))

(declare-fun m!7825 () Bool)

(assert (=> b!5289 m!7825))

(declare-fun m!7827 () Bool)

(assert (=> b!5289 m!7827))

(declare-fun m!7829 () Bool)

(assert (=> b!5289 m!7829))

(declare-fun m!7831 () Bool)

(assert (=> b!5289 m!7831))

(declare-fun m!7833 () Bool)

(assert (=> b!5289 m!7833))

(declare-fun m!7835 () Bool)

(assert (=> b!5289 m!7835))

(check-sat (not b!5288) (not start!1205) (not b!5290))
(check-sat)
